7979
28, 26, 47, 13, 14, 52, 11, 51, 33, 43, 10, 9, 8, 41, 45, 19, 3, 17, 21, 42, 7, 2, 30, 29, 20, 50, 23, 31, 18, 22, 1, 32, 49, 36, 35, 34, 44, 16, 46, 37, 39, 40, 38, 48, 24, 5, 15, 6, 4, 25, 12, 27
